Problem:    Vigneto
Rows:       57
Columns:    10
Non-zeros:  110
Status:     OPTIMAL
Objective:  z = 24200000 (MAXimum)

   No.   Row name   St   Activity     Lower bound   Upper bound    Marginal
------ ------------ -- ------------- ------------- ------------- -------------
     1 def_x[Silvaner]
                    NS             0            -0             =         < eps
     2 def_x[Riesling]
                    NS             0            -0             =         < eps
     3 def_x[Pinot] NS             0            -0             =         < eps
     4 def_x[Mueller]
                    NS             0            -0             =         < eps
     5 def_x[Merlot]
                    NS             0            -0             =         < eps
     6 minimo[Silvaner]
                    B       1.5e+006        150000               
     7 minimo[Riesling]
                    B       1.2e+006        200000               
     8 minimo[Pinot]
                    B         950000        100000               
     9 minimo[Mueller]
                    B         800000        150000               
    10 minimo[Merlot]
                    B       1.5e+006        100000               
    11 massimo[Silvaner]
                    NU      1.5e+006                    1.5e+006           4.5 
    12 massimo[Riesling]
                    NU      1.2e+006                    1.2e+006             5 
    13 massimo[Pinot]
                    NU        950000                      950000             4 
    14 massimo[Mueller]
                    NU        800000                      800000             3 
    15 massimo[Merlot]
                    NU      1.5e+006                    1.5e+006           3.5 
    16 areaMassima  B        560.476                        1000 
    17 limiteVitigno[Silvaner,Riesling]
                    B           -275                          -0 
    18 limiteVitigno[Silvaner,Pinot]
                    B           -160                          -0 
    19 limiteVitigno[Silvaner,Mueller]
                    B           -175                          -0 
    20 limiteVitigno[Silvaner,Merlot]
                    B       -196.429                          -0 
    21 limiteVitigno[Riesling,Silvaner]
                    B       -241.667                          -0 
    22 limiteVitigno[Riesling,Pinot]
                    B       -151.667                          -0 
    23 limiteVitigno[Riesling,Mueller]
                    B       -166.667                          -0 
    24 limiteVitigno[Riesling,Merlot]
                    B       -188.095                          -0 
    25 limiteVitigno[Pinot,Silvaner]
                    B           -280                          -0 
    26 limiteVitigno[Pinot,Riesling]
                    B           -305                          -0 
    27 limiteVitigno[Pinot,Mueller]
                    B           -205                          -0 
    28 limiteVitigno[Pinot,Merlot]
                    B       -226.429                          -0 
    29 limiteVitigno[Mueller,Silvaner]
                    B           -275                          -0 
    30 limiteVitigno[Mueller,Riesling]
                    B           -300                          -0 
    31 limiteVitigno[Mueller,Pinot]
                    B           -185                          -0 
    32 limiteVitigno[Mueller,Merlot]
                    B       -221.429                          -0 
    33 limiteVitigno[Merlot,Silvaner]
                    B       -267.857                          -0 
    34 limiteVitigno[Merlot,Riesling]
                    B       -292.857                          -0 
    35 limiteVitigno[Merlot,Pinot]
                    B       -177.857                          -0 
    36 limiteVitigno[Merlot,Mueller]
                    B       -192.857                          -0 
    37 limiteVino[Silvaner,Riesling]
                    B      -3.3e+006                          -0 
    38 limiteVino[Silvaner,Pinot]
                    B      -2.3e+006                          -0 
    39 limiteVino[Silvaner,Mueller]
                    B      -1.7e+006                          -0 
    40 limiteVino[Silvaner,Merlot]
                    B      -4.5e+006                          -0 
    41 limiteVino[Riesling,Silvaner]
                    B      -4.8e+006                          -0 
    42 limiteVino[Riesling,Pinot]
                    B      -2.6e+006                          -0 
    43 limiteVino[Riesling,Mueller]
                    B        -2e+006                          -0 
    44 limiteVino[Riesling,Merlot]
                    B      -4.8e+006                          -0 
    45 limiteVino[Pinot,Silvaner]
                    B     -5.05e+006                          -0 
    46 limiteVino[Pinot,Riesling]
                    B     -3.85e+006                          -0 
    47 limiteVino[Pinot,Mueller]
                    B     -2.25e+006                          -0 
    48 limiteVino[Pinot,Merlot]
                    B     -5.05e+006                          -0 
    49 limiteVino[Mueller,Silvaner]
                    B      -5.2e+006                          -0 
    50 limiteVino[Mueller,Riesling]
                    B        -4e+006                          -0 
    51 limiteVino[Mueller,Pinot]
                    B        -3e+006                          -0 
    52 limiteVino[Mueller,Merlot]
                    B      -5.2e+006                          -0 
    53 limiteVino[Merlot,Silvaner]
                    B      -4.5e+006                          -0 
    54 limiteVino[Merlot,Riesling]
                    B      -3.3e+006                          -0 
    55 limiteVino[Merlot,Pinot]
                    B      -2.3e+006                          -0 
    56 limiteVino[Merlot,Mueller]
                    B      -1.7e+006                          -0 
    57 z            B      2.42e+007                             

   No. Column name  St   Activity     Lower bound   Upper bound    Marginal
------ ------------ -- ------------- ------------- ------------- -------------
     1 x[Silvaner]  B       1.5e+006             0               
     2 x[Riesling]  B       1.2e+006             0               
     3 x[Pinot]     B         950000             0               
     4 x[Mueller]   B         800000             0               
     5 x[Merlot]    B       1.5e+006             0               
     6 y[Silvaner]  B            125             0               
     7 y[Riesling]  B        133.333             0               
     8 y[Pinot]     B             95             0               
     9 y[Mueller]   B            100             0               
    10 y[Merlot]    B        107.143             0               

Karush-Kuhn-Tucker optimality conditions:

KKT.PE: max.abs.err = 2.33e-010 on row 3
        max.rel.err = 1.23e-016 on row 3
        High quality

KKT.PB: max.abs.err = 0.00e+000 on row 0
        max.rel.err = 0.00e+000 on row 0
        High quality

KKT.DE: max.abs.err = 0.00e+000 on column 0
        max.rel.err = 0.00e+000 on column 0
        High quality

KKT.DB: max.abs.err = 0.00e+000 on row 0
        max.rel.err = 0.00e+000 on row 0
        High quality

End of output
